data;


param FN:= 5;
param D:= 100;
param U_Original:=
         1         1        9.315416e-01
         2         1        9.882456e-01
         3         1        2.405984e-01
         4         1       -4.817684e-01
         5         1        5.981079e-01
         6         1       -3.487802e-01
         7         1        8.786317e-02
         8         1        2.121541e-01
         9         1        2.100972e+00
        10         1        3.816894e-01
        11         1       -1.615041e-02
        12         1       -1.111643e+00
        13         1        3.560638e-01
        14         1       -2.250331e+00
        15         1        7.718240e-01
        16         1        3.107563e-02
        17         1        5.276511e-01
        18         1       -8.697626e-02
        19         1       -6.578725e-01
        20         1        1.192763e+00
        21         1       -1.271227e+00
        22         1       -2.213781e+00
        23         1       -3.003162e-01
        24         1       -2.302169e-01
        25         1       -1.508275e-01
        26         1       -5.612279e-01
        27         1       -5.383894e-01
        28         1        1.404211e+00
        29         1       -1.815359e+00
        30         1        8.713737e-01
        31         1        7.936739e-01
        32         1       -6.448311e-01
        33         1       -1.341092e+00
        34         1        2.798820e-01
        35         1       -1.712333e+00
        36         1       -4.906876e-01
        37         1       -6.003117e-01
        38         1       -9.174422e-01
        39         1        7.862542e-01
        40         1        5.832485e-01
        41         1        3.531973e-01
        42         1       -9.226274e-01
        43         1       -2.123373e-01
        44         1        7.935882e-01
        45         1        3.259499e-01
        46         1       -8.525410e-01
        47         1       -3.187386e-01
        48         1       -5.692811e-02
        49         1        5.004715e-01
        50         1       -2.149409e-01
        51         1       -5.134653e-02
        52         1       -5.031842e-02
        53         1       -8.617421e-01
        54         1        1.752265e+00
        55         1       -1.381446e+00
        56         1        2.683394e-01
        57         1        4.188984e-01
        58         1       -2.150752e+00
        59         1        4.644401e-01
        60         1       -8.712122e-01
        61         1       -3.990524e-01
        62         1       -8.380033e-02
        63         1       -1.347347e+00
        64         1        6.994483e-01
        65         1       -5.106909e-01
        66         1        2.902779e-01
        67         1        4.815581e-01
        68         1       -2.424274e-01
        69         1        1.057641e-01
        70         1        4.310131e-01
        71         1        2.683255e-01
        72         1       -2.019991e-01
        73         1       -1.799830e-01
        74         1       -5.442743e-01
        75         1        7.114321e-01
        76         1       -4.500008e-01
        77         1       -3.533503e-01
        78         1        1.168791e+00
        79         1        5.152985e-01
        80         1       -5.671452e-02
        81         1       -2.746978e-01
        82         1        1.711506e+00
        83         1        5.820996e-01
        84         1       -2.644189e-01
        85         1       -4.808035e-02
        86         1       -3.487686e+00
        87         1       -1.109177e+00
        88         1       -6.695446e-02
        89         1       -2.401803e-01
        90         1       -4.904259e-01
        91         1        7.315438e-02
        92         1       -1.307927e+00
        93         1       -3.812399e-01
        94         1       -4.512195e-01
        95         1        5.806231e-02
        96         1        4.949106e-01
        97         1        9.561917e-01
        98         1        2.124806e+00
        99         1        1.396909e+00
       100         1       -1.077914e+00
         1         2       -3.846092e-01
         2         2        2.208010e-01
         3         2        7.198416e-01
         4         2       -1.437693e+00
         5         2        1.457181e-01
         6         2        6.697358e-01
         7         2       -1.000911e+00
         8         2        1.463080e-01
         9         2        9.624151e-01
        10         2       -1.822866e+00
        11         2       -8.794999e-01
        12         2       -3.216837e-01
        13         2        3.037815e-01
        14         2        1.842772e+00
        15         2        1.012059e+00
        16         2       -1.099350e+00
        17         2       -9.297419e-01
        18         2       -2.670649e-01
        19         2       -1.484127e+00
        20         2        1.448114e+00
        21         2        2.699204e-01
        22         2       -5.909542e-01
        23         2       -5.668486e-01
        24         2       -1.030432e+00
        25         2       -3.463395e+00
        26         2       -1.250745e+00
        27         2       -1.282614e-01
        28         2       -3.835127e-01
        29         2        1.677562e-01
        30         2       -5.905761e-01
        31         2        1.952011e+00
        32         2        4.100017e-01
        33         2       -2.534619e-01
        34         2       -6.433898e-01
        35         2        2.200311e+00
        36         2       -3.454845e-01
        37         2       -9.676672e-01
        38         2        2.049457e-01
        39         2       -1.394057e+00
        40         2        1.318945e+00
        41         2       -7.306848e-02
        42         2       -6.998322e-01
        43         2        1.575468e+00
        44         2       -3.352749e-01
        45         2        9.928887e-01
        46         2        1.862698e-01
        47         2        2.855124e+00
        48         2       -1.055060e+00
        49         2        2.417198e-01
        50         2        7.477650e-01
        51         2       -6.297710e-01
        52         2       -1.900856e-01
        53         2       -3.504785e-01
        54         2        1.570616e+00
        55         2       -1.246610e+00
        56         2       -7.996552e-02
        57         2        9.438061e-01
        58         2       -1.407046e+00
        59         2       -7.277331e-01
        60         2        1.385976e+00
        61         2        1.367631e-01
        62         2        1.965817e+00
        63         2        4.396710e-01
        64         2        2.381305e+00
        65         2       -1.434687e+00
        66         2        5.314305e-01
        67         2       -1.443727e-01
        68         2        7.952503e-01
        69         2        1.665672e+00
        70         2       -3.654161e-02
        71         2       -8.439043e-02
        72         2        3.844776e-01
        73         2        1.280962e+00
        74         2        1.510412e-01
        75         2        5.098084e-01
        76         2        6.978511e-02
        77         2        1.499955e+00
        78         2       -1.152058e+00
        79         2       -2.231174e+00
        80         2       -7.577417e-02
        81         2       -7.666439e-03
        82         2       -4.386891e-01
        83         2        3.049193e-01
        84         2       -4.497544e-01
        85         2       -5.384757e-01
        86         2       -9.891706e-01
        87         2       -1.022828e+00
        88         2       -1.285458e+00
        89         2       -1.888150e-03
        90         2       -4.897906e-01
        91         2       -1.874761e-01
        92         2       -2.240035e-01
        93         2        1.421514e+00
        94         2       -6.234198e-01
        95         2       -7.905744e-01
        96         2       -2.679407e-01
        97         2       -6.356633e-01
        98         2       -6.836146e-02
        99         2        6.718157e-01
       100         2       -9.059818e-01
         1         3        1.520148e+00
         2         3        2.186608e+00
         3         3        7.566351e-01
         4         3       -1.229176e+00
         5         3        1.085787e+00
         6         3        5.937766e-01
         7         3        7.157920e-02
         8         3        1.993326e+00
         9         3       -7.939728e-01
        10         3       -7.857517e-02
        11         3        2.884520e-01
        12         3       -1.357044e+00
        13         3        6.936669e-02
        14         3       -8.446464e-01
        15         3        1.115475e+00
        16         3       -2.144503e-01
        17         3       -3.510080e-01
        18         3        2.497651e-01
        19         3       -1.419216e+00
        20         3        1.192665e-01
        21         3        4.138995e-01
        22         3       -2.890593e-01
        23         3       -1.500800e-02
        24         3       -6.462095e-01
        25         3       -4.843326e-01
        26         3       -1.138148e+00
        27         3       -2.145086e-01
        28         3       -1.129474e+00
        29         3        3.855547e-01
        30         3       -2.320095e+00
        31         3        6.598742e-01
        32         3       -6.125518e-01
        33         3        5.133212e-01
        34         3       -9.303356e-01
        35         3       -2.591411e+00
        36         3       -9.432609e-01
        37         3        6.146272e-01
        38         3        2.204254e+00
        39         3        2.666186e-01
        40         3       -4.326010e-01
        41         3       -3.051051e-01
        42         3       -3.833900e-01
        43         3       -1.079943e+00
        44         3       -3.220271e-01
        45         3       -8.066176e-01
        46         3       -4.883219e-01
        47         3       -5.901583e-01
        48         3       -1.544064e+00
        49         3       -2.718012e-01
        50         3        1.789082e-02
        51         3        1.039192e-01
        52         3        5.079449e-01
        53         3       -1.883528e+00
        54         3       -8.011781e-01
        55         3        1.965368e-01
        56         3       -1.364709e-01
        57         3       -7.418813e-02
        58         3       -8.953733e-02
        59         3       -7.220598e-01
        60         3       -7.919785e-01
        61         3       -6.004444e-01
        62         3        6.747376e-01
        63         3        9.141073e-01
        64         3        8.586857e-01
        65         3       -3.090342e+00
        66         3        3.657025e-01
        67         3        1.392299e+00
        68         3       -1.267724e+00
        69         3        1.538392e+00
        70         3        2.010169e+00
        71         3        7.945339e-01
        72         3        8.412773e-01
        73         3       -4.972303e-01
        74         3        6.472891e-01
        75         3        3.466547e-01
        76         3       -1.107774e+00
        77         3       -9.484007e-01
        78         3       -1.054346e-01
        79         3        1.858734e+00
        80         3        9.722781e-01
        81         3        1.571670e+00
        82         3       -1.169546e+00
        83         3        1.041982e+00
        84         3        6.065561e-01
        85         3       -3.753036e-02
        86         3       -3.596849e-01
        87         3        9.995884e-02
        88         3       -1.573947e-02
        89         3        1.434109e+00
        90         3        4.242420e-01
        91         3       -7.100414e-01
        92         3        1.372697e-01
        93         3        2.604805e-01
        94         3        4.690824e-01
        95         3        7.691439e-02
        96         3       -4.308404e-01
        97         3       -6.697489e-02
        98         3        1.645314e+00
        99         3        7.083263e-01
       100         3       -1.544856e+00
         1         4       -7.230480e-01
         2         4        2.557719e-01
         3         4       -1.002889e+00
         4         4       -2.773569e+00
         5         4        9.794863e-01
         6         4       -3.391995e-01
         7         4        1.662826e+00
         8         4        6.013385e-01
         9         4        1.450895e+00
        10         4        1.452813e-01
        11         4        1.932719e+00
        12         4       -5.068668e-01
        13         4       -1.193458e+00
        14         4       -2.260071e-02
        15         4       -9.424986e-02
        16         4       -1.039995e+00
        17         4        4.435037e-01
        18         4        1.804529e-01
        19         4       -3.695704e-01
        20         4        1.922091e+00
        21         4        2.301773e+00
        22         4       -2.685921e-01
        23         4       -8.226415e-01
        24         4       -2.536591e-01
        25         4        6.464318e-01
        26         4        2.049505e-01
        27         4        4.694131e-01
        28         4        3.051563e-01
        29         4       -9.070284e-01
        30         4        8.872437e-01
        31         4       -4.238352e-01
        32         4        6.001410e-01
        33         4       -7.631262e-01
        34         4       -8.334279e-01
        35         4       -2.745971e+00
        36         4       -2.541067e-01
        37         4       -7.213752e-01
        38         4        1.560404e-01
        39         4       -2.451779e-01
        40         4       -7.055137e-01
        41         4        8.195362e-01
        42         4        1.405372e+00
        43         4        2.967307e-01
        44         4       -1.513258e+00
        45         4       -1.650411e+00
        46         4        4.600211e-01
        47         4       -1.641763e-01
        48         4       -6.538584e-01
        49         4        1.424098e+00
        50         4        1.218090e+00
        51         4       -1.950596e+00
        52         4       -1.199509e+00
        53         4        6.344668e-01
        54         4        1.905709e-01
        55         4        2.796044e+00
        56         4        1.979010e-01
        57         4       -6.717077e-01
        58         4        2.514848e-01
        59         4       -5.777397e-01
        60         4        1.928082e+00
        61         4        1.009359e+00
        62         4        9.312133e-02
        63         4       -1.471903e+00
        64         4        1.817774e-01
        65         4       -5.458774e-01
        66         4        3.372630e-01
        67         4       -1.291588e-02
        68         4        1.651270e+00
        69         4        4.933291e-01
        70         4        5.638340e-01
        71         4        6.096999e-01
        72         4       -1.408819e+00
        73         4       -3.158746e-01
        74         4        1.094333e+00
        75         4       -1.558345e-01
        76         4       -1.075444e+00
        77         4       -1.654578e+00
        78         4        1.425693e+00
        79         4        3.235234e+00
        80         4        6.511828e-01
        81         4       -9.698527e-01
        82         4       -1.224578e-01
        83         4       -1.052292e+00
        84         4       -4.051936e-01
        85         4       -1.099222e+00
        86         4       -3.487393e-01
        87         4        9.774843e-01
        88         4        7.633005e-01
        89         4       -1.088781e+00
        90         4       -8.104307e-01
        91         4        3.745068e-01
        92         4       -7.037415e-01
        93         4        1.184244e+00
        94         4       -2.316107e-02
        95         4       -1.619975e+00
        96         4        7.455611e-02
        97         4        9.940481e-01
        98         4       -2.352439e+00
        99         4        3.321888e-03
       100         4        6.291785e-01
         1         5        1.437804e-01
         2         5       -7.142192e-01
         3         5       -2.556396e-01
         4         5       -4.686013e-01
         5         5        4.268308e-01
         6         5       -1.655905e+00
         7         5        8.717148e-01
         8         5       -1.041518e+00
         9         5        7.945041e-01
        10         5       -6.904969e-01
        11         5       -1.157089e-01
        12         5       -5.211799e-01
        13         5        1.799718e+00
        14         5        1.987750e+00
        15         5        8.754227e-02
        16         5        9.269795e-02
        17         5        4.372829e-02
        18         5        1.554159e+00
        19         5        4.878659e-01
        20         5       -1.502345e-01
        21         5        1.122298e+00
        22         5        7.468446e-03
        23         5       -1.275338e+00
        24         5        1.085026e+00
        25         5        7.788746e-01
        26         5        2.574331e-01
        27         5        1.663842e-01
        28         5       -2.005869e-01
        29         5        2.187146e-01
        30         5        5.568303e-01
        31         5        4.871727e-01
        32         5        8.412014e-01
        33         5       -1.560141e+00
        34         5       -1.320911e+00
        35         5       -1.757991e+00
        36         5       -9.619306e-01
        37         5        5.581951e-01
        38         5       -9.944812e-01
        39         5       -1.509108e+00
        40         5        2.217656e-01
        41         5        3.945390e-01
        42         5       -1.049576e-02
        43         5        3.073590e-01
        44         5        2.298568e+00
        45         5       -4.472884e-01
        46         5       -9.891436e-01
        47         5        1.498132e-01
        48         5        2.958510e-01
        49         5        1.300453e+00
        50         5       -1.152705e+00
        51         5       -4.017025e-01
        52         5       -1.126271e+00
        53         5       -2.967529e-01
        54         5       -1.049808e-01
        55         5        2.455787e-01
        56         5       -8.610507e-01
        57         5       -4.803346e-01
        58         5        9.819535e-01
        59         5       -8.895930e-01
        60         5       -5.500885e-01
        61         5       -1.138861e+00
        62         5        7.125765e-01
        63         5       -1.545806e+00
        64         5       -1.179225e-01
        65         5        5.981253e-01
        66         5        3.921925e-01
        67         5       -3.005660e-01
        68         5        3.205139e-01
        69         5       -6.807464e-01
        70         5       -5.852209e-01
        71         5        1.252234e-01
        72         5       -1.384563e+00
        73         5       -4.544960e-01
        74         5        2.739468e-01
        75         5        8.899141e-01
        76         5        5.324153e-01
        77         5       -2.120651e+00
        78         5       -5.613171e-01
        79         5       -2.432647e+00
        80         5       -1.655911e+00
        81         5       -1.310431e+00
        82         5       -1.818129e-01
        83         5        1.872379e-01
        84         5       -3.268241e-01
        85         5        1.363253e+00
        86         5        9.245704e-01
        87         5        4.267882e-01
        88         5        4.403363e-01
        89         5        1.547135e+00
        90         5        1.131086e+00
        91         5       -6.209601e-01
        92         5        3.852304e-01
        93         5        6.538296e-01
        94         5        1.537731e+00
        95         5        6.323781e-01
        96         5       -2.154514e+00
        97         5        4.134592e-02
        98         5       -5.468568e-01
        99         5       -1.899350e-02
       100         5       -1.249306e+00
;
param X_Original:=
    1        4.755197e-02
    2        1.534978e-01
    3        8.178694e-01
    4        1.467999e-01
    5        1.766568e-02
    6        1.587998e+00
    7       -1.850607e+00
    8        1.077805e+00
    9       -1.114258e-01
   10        1.283360e+00
   11       -1.096825e+00
   12       -2.042583e+00
   13        1.400493e+00
   14        1.814445e+00
   15        1.776405e+00
   16        9.694792e-01
   17       -8.195855e-01
   18       -1.554519e+00
   19        7.371389e-02
   20       -7.405184e-01
   21        1.209601e+00
   22       -1.597437e+00
   23        6.396556e-01
   24       -2.209676e+00
   25        3.380636e-01
   26       -8.056114e-01
   27        1.006056e+00
   28       -5.987841e-01
   29       -2.517754e-01
   30        2.736804e-01
   31       -1.080638e-01
   32        1.556313e-01
   33       -1.194337e+00
   34        6.008922e-01
   35       -3.673156e-01
   36        2.369630e-01
   37       -8.275052e-01
   38       -7.201731e-01
   39        2.280836e-01
   40        3.431668e-01
   41       -7.628586e-01
   42       -3.254184e-02
   43       -1.084868e+00
   44        1.730099e-01
   45        1.522713e+00
   46       -5.191962e-02
   47        2.189013e-01
   48        1.072477e+00
   49       -1.235433e-01
   50        7.728870e-01
   51        7.956630e-01
   52       -8.391523e-01
   53        2.226501e+00
   54       -4.865148e-01
   55        6.994637e-01
   56        3.071333e-01
   57       -2.180740e-01
   58       -4.148249e-01
   59        7.478243e-01
   60       -7.269358e-01
   61        1.072247e+00
   62       -1.383472e+00
   63       -6.637469e-01
   64        2.060566e+00
   65       -3.991445e+00
   66       -9.957886e-01
   67       -1.195495e-01
   68       -2.388074e+00
   69       -9.128035e-01
   70       -1.808099e+00
   71        3.309980e-01
   72        3.460406e-01
   73       -8.700233e-01
   74       -4.762913e-01
   75       -8.732487e-01
   76        9.403380e-01
   77        8.977169e-01
   78        1.682903e+00
   79       -1.634814e+00
   80       -1.212643e-01
   81       -1.992159e-01
   82       -1.338361e+00
   83        1.811422e+00
   84        7.843948e-01
   85       -7.581188e-01
   86        1.293433e-01
   87       -1.972781e-01
   88       -6.788168e-01
   89       -1.236832e+00
   90        8.836281e-01
   91        1.645966e+00
   92       -1.419129e+00
   93       -5.748108e-01
   94       -1.846954e+00
   95        4.918642e-01
   96       -1.937312e+00
   97       -3.519057e-02
   98       -7.715466e-01
   99        6.160085e-01
  100        1.106373e-01
;
param outliervec_original :=
    1    1
    2    1
    3    1
    4    1
    5    1
    6    1
    7    1
    8    1
    9    1
   10    1
   11    0
   12    1
   13    1
   14    1
   15    0
   16    1
   17    1
   18    1
   19    1
   20    1
   21    1
   22    0
   23    1
   24    0
   25    1
   26    1
   27    1
   28    1
   29    1
   30    1
   31    1
   32    1
   33    1
   34    1
   35    1
   36    1
   37    1
   38    1
   39    1
   40    1
   41    1
   42    1
   43    0
   44    1
   45    1
   46    1
   47    0
   48    1
   49    1
   50    0
   51    1
   52    1
   53    1
   54    1
   55    1
   56    1
   57    1
   58    1
   59    0
   60    1
   61    1
   62    1
   63    1
   64    0
   65    0
   66    1
   67    1
   68    0
   69    1
   70    1
   71    0
   72    1
   73    1
   74    1
   75    1
   76    1
   77    1
   78    1
   79    1
   80    1
   81    1
   82    1
   83    0
   84    1
   85    1
   86    1
   87    1
   88    1
   89    1
   90    1
   91    1
   92    1
   93    1
   94    0
   95    1
   96    1
   97    1
   98    1
   99    1
  100    1
;
param d:= 57;
param r:=5;
param p:=0.860000;
param M:=1000;
param U:=
         1         1        9.315416e-01
         2         1        9.882456e-01
         3         1        2.405984e-01
         4         1       -3.487802e-01
         5         1        8.786317e-02
         6         1        2.100972e+00
         7         1        3.816894e-01
         8         1       -1.615041e-02
         9         1        3.107563e-02
        10         1        5.276511e-01
        11         1       -8.697626e-02
        12         1       -6.578725e-01
        13         1        1.192763e+00
        14         1       -2.213781e+00
        15         1       -3.003162e-01
        16         1       -5.612279e-01
        17         1       -1.815359e+00
        18         1        8.713737e-01
        19         1        7.936739e-01
        20         1       -4.906876e-01
        21         1       -6.003117e-01
        22         1       -9.174422e-01
        23         1        5.832485e-01
        24         1        3.531973e-01
        25         1       -2.123373e-01
        26         1        7.935882e-01
        27         1        3.259499e-01
        28         1       -8.525410e-01
        29         1       -3.187386e-01
        30         1       -5.692811e-02
        31         1       -2.149409e-01
        32         1       -5.134653e-02
        33         1        2.683394e-01
        34         1        4.644401e-01
        35         1       -8.712122e-01
        36         1       -3.990524e-01
        37         1       -8.380033e-02
        38         1        2.902779e-01
        39         1        4.815581e-01
        40         1       -2.424274e-01
        41         1        1.057641e-01
        42         1        7.114321e-01
        43         1       -4.500008e-01
        44         1        5.152985e-01
        45         1       -5.671452e-02
        46         1        5.820996e-01
        47         1       -2.644189e-01
        48         1       -4.808035e-02
        49         1       -6.695446e-02
        50         1       -2.401803e-01
        51         1        7.315438e-02
        52         1       -1.307927e+00
        53         1       -4.512195e-01
        54         1        5.806231e-02
        55         1        9.561917e-01
        56         1        1.396909e+00
        57         1       -1.077914e+00
         1         2       -3.846092e-01
         2         2        2.208010e-01
         3         2        7.198416e-01
         4         2        6.697358e-01
         5         2       -1.000911e+00
         6         2        9.624151e-01
         7         2       -1.822866e+00
         8         2       -8.794999e-01
         9         2       -1.099350e+00
        10         2       -9.297419e-01
        11         2       -2.670649e-01
        12         2       -1.484127e+00
        13         2        1.448114e+00
        14         2       -5.909542e-01
        15         2       -5.668486e-01
        16         2       -1.250745e+00
        17         2        1.677562e-01
        18         2       -5.905761e-01
        19         2        1.952011e+00
        20         2       -3.454845e-01
        21         2       -9.676672e-01
        22         2        2.049457e-01
        23         2        1.318945e+00
        24         2       -7.306848e-02
        25         2        1.575468e+00
        26         2       -3.352749e-01
        27         2        9.928887e-01
        28         2        1.862698e-01
        29         2        2.855124e+00
        30         2       -1.055060e+00
        31         2        7.477650e-01
        32         2       -6.297710e-01
        33         2       -7.996552e-02
        34         2       -7.277331e-01
        35         2        1.385976e+00
        36         2        1.367631e-01
        37         2        1.965817e+00
        38         2        5.314305e-01
        39         2       -1.443727e-01
        40         2        7.952503e-01
        41         2        1.665672e+00
        42         2        5.098084e-01
        43         2        6.978511e-02
        44         2       -2.231174e+00
        45         2       -7.577417e-02
        46         2        3.049193e-01
        47         2       -4.497544e-01
        48         2       -5.384757e-01
        49         2       -1.285458e+00
        50         2       -1.888150e-03
        51         2       -1.874761e-01
        52         2       -2.240035e-01
        53         2       -6.234198e-01
        54         2       -7.905744e-01
        55         2       -6.356633e-01
        56         2        6.718157e-01
        57         2       -9.059818e-01
         1         3        1.520148e+00
         2         3        2.186608e+00
         3         3        7.566351e-01
         4         3        5.937766e-01
         5         3        7.157920e-02
         6         3       -7.939728e-01
         7         3       -7.857517e-02
         8         3        2.884520e-01
         9         3       -2.144503e-01
        10         3       -3.510080e-01
        11         3        2.497651e-01
        12         3       -1.419216e+00
        13         3        1.192665e-01
        14         3       -2.890593e-01
        15         3       -1.500800e-02
        16         3       -1.138148e+00
        17         3        3.855547e-01
        18         3       -2.320095e+00
        19         3        6.598742e-01
        20         3       -9.432609e-01
        21         3        6.146272e-01
        22         3        2.204254e+00
        23         3       -4.326010e-01
        24         3       -3.051051e-01
        25         3       -1.079943e+00
        26         3       -3.220271e-01
        27         3       -8.066176e-01
        28         3       -4.883219e-01
        29         3       -5.901583e-01
        30         3       -1.544064e+00
        31         3        1.789082e-02
        32         3        1.039192e-01
        33         3       -1.364709e-01
        34         3       -7.220598e-01
        35         3       -7.919785e-01
        36         3       -6.004444e-01
        37         3        6.747376e-01
        38         3        3.657025e-01
        39         3        1.392299e+00
        40         3       -1.267724e+00
        41         3        1.538392e+00
        42         3        3.466547e-01
        43         3       -1.107774e+00
        44         3        1.858734e+00
        45         3        9.722781e-01
        46         3        1.041982e+00
        47         3        6.065561e-01
        48         3       -3.753036e-02
        49         3       -1.573947e-02
        50         3        1.434109e+00
        51         3       -7.100414e-01
        52         3        1.372697e-01
        53         3        4.690824e-01
        54         3        7.691439e-02
        55         3       -6.697489e-02
        56         3        7.083263e-01
        57         3       -1.544856e+00
         1         4       -7.230480e-01
         2         4        2.557719e-01
         3         4       -1.002889e+00
         4         4       -3.391995e-01
         5         4        1.662826e+00
         6         4        1.450895e+00
         7         4        1.452813e-01
         8         4        1.932719e+00
         9         4       -1.039995e+00
        10         4        4.435037e-01
        11         4        1.804529e-01
        12         4       -3.695704e-01
        13         4        1.922091e+00
        14         4       -2.685921e-01
        15         4       -8.226415e-01
        16         4        2.049505e-01
        17         4       -9.070284e-01
        18         4        8.872437e-01
        19         4       -4.238352e-01
        20         4       -2.541067e-01
        21         4       -7.213752e-01
        22         4        1.560404e-01
        23         4       -7.055137e-01
        24         4        8.195362e-01
        25         4        2.967307e-01
        26         4       -1.513258e+00
        27         4       -1.650411e+00
        28         4        4.600211e-01
        29         4       -1.641763e-01
        30         4       -6.538584e-01
        31         4        1.218090e+00
        32         4       -1.950596e+00
        33         4        1.979010e-01
        34         4       -5.777397e-01
        35         4        1.928082e+00
        36         4        1.009359e+00
        37         4        9.312133e-02
        38         4        3.372630e-01
        39         4       -1.291588e-02
        40         4        1.651270e+00
        41         4        4.933291e-01
        42         4       -1.558345e-01
        43         4       -1.075444e+00
        44         4        3.235234e+00
        45         4        6.511828e-01
        46         4       -1.052292e+00
        47         4       -4.051936e-01
        48         4       -1.099222e+00
        49         4        7.633005e-01
        50         4       -1.088781e+00
        51         4        3.745068e-01
        52         4       -7.037415e-01
        53         4       -2.316107e-02
        54         4       -1.619975e+00
        55         4        9.940481e-01
        56         4        3.321888e-03
        57         4        6.291785e-01
         1         5        1.437804e-01
         2         5       -7.142192e-01
         3         5       -2.556396e-01
         4         5       -1.655905e+00
         5         5        8.717148e-01
         6         5        7.945041e-01
         7         5       -6.904969e-01
         8         5       -1.157089e-01
         9         5        9.269795e-02
        10         5        4.372829e-02
        11         5        1.554159e+00
        12         5        4.878659e-01
        13         5       -1.502345e-01
        14         5        7.468446e-03
        15         5       -1.275338e+00
        16         5        2.574331e-01
        17         5        2.187146e-01
        18         5        5.568303e-01
        19         5        4.871727e-01
        20         5       -9.619306e-01
        21         5        5.581951e-01
        22         5       -9.944812e-01
        23         5        2.217656e-01
        24         5        3.945390e-01
        25         5        3.073590e-01
        26         5        2.298568e+00
        27         5       -4.472884e-01
        28         5       -9.891436e-01
        29         5        1.498132e-01
        30         5        2.958510e-01
        31         5       -1.152705e+00
        32         5       -4.017025e-01
        33         5       -8.610507e-01
        34         5       -8.895930e-01
        35         5       -5.500885e-01
        36         5       -1.138861e+00
        37         5        7.125765e-01
        38         5        3.921925e-01
        39         5       -3.005660e-01
        40         5        3.205139e-01
        41         5       -6.807464e-01
        42         5        8.899141e-01
        43         5        5.324153e-01
        44         5       -2.432647e+00
        45         5       -1.655911e+00
        46         5        1.872379e-01
        47         5       -3.268241e-01
        48         5        1.363253e+00
        49         5        4.403363e-01
        50         5        1.547135e+00
        51         5       -6.209601e-01
        52         5        3.852304e-01
        53         5        1.537731e+00
        54         5        6.323781e-01
        55         5        4.134592e-02
        56         5       -1.899350e-02
        57         5       -1.249306e+00
;

param theta:=
    1        5.773155e-01
    2        3.564115e-01
    3        9.101452e-01
    4       -6.065184e-01
    5       -1.174743e+00
;
param X_true:=
    1        2.053042e+00
    2        3.323869e+00
    3        1.992898e+00
    4        2.729425e+00
    5       -2.272587e+00
    6       -9.799406e-01
    7        2.214184e-01
    8       -1.096825e+00
    9       -4.686453e-02
   10       -6.649231e-01
   11       -1.853201e+00
   12       -2.547523e+00
   13        3.244621e-01
   14       -1.597437e+00
   15        1.607161e+00
   16       -2.232931e+00
   17       -3.445960e-01
   18       -3.011530e+00
   19        1.438856e+00
   20        1.944995e-02
   21       -3.483350e-01
   22        2.623502e+00
   23        5.809989e-01
   24       -1.062369e+00
   25       -1.084868e+00
   26       -1.735846e+00
   27        1.333359e+00
   28        1.442234e-02
   29        2.189013e-01
   30       -1.766248e+00
   31        7.728870e-01
   32        1.497891e+00
   33        8.943293e-01
   34        7.478243e-01
   35       -1.254770e+00
   36       -2.935117e-03
   37        3.730461e-01
   38        2.426065e-02
   39        1.854350e+00
   40       -2.388074e+00
   41        2.556473e+00
   42       -4.419285e-02
   43       -1.215642e+00
   44        2.089041e+00
   45        2.374619e+00
   46        1.811422e+00
   47        8.706872e-01
   48       -1.188082e+00
   49       -1.491287e+00
   50        7.856891e-03
   51       -1.679088e-01
   52       -7.349980e-01
   53       -1.846954e+00
   54        6.108019e-02
   55       -3.873742e-01
   56        1.711015e+00
   57       -1.265947e+00
;
param X:=
    1        4.755197e-02
    2        1.534978e-01
    3        8.178694e-01
    4        1.587998e+00
    5       -1.850607e+00
    6       -1.114258e-01
    7        1.283360e+00
    8       -1.096825e+00
    9        9.694792e-01
   10       -8.195855e-01
   11       -1.554519e+00
   12        7.371389e-02
   13       -7.405184e-01
   14       -1.597437e+00
   15        6.396556e-01
   16       -8.056114e-01
   17       -2.517754e-01
   18        2.736804e-01
   19       -1.080638e-01
   20        2.369630e-01
   21       -8.275052e-01
   22       -7.201731e-01
   23        3.431668e-01
   24       -7.628586e-01
   25       -1.084868e+00
   26        1.730099e-01
   27        1.522713e+00
   28       -5.191962e-02
   29        2.189013e-01
   30        1.072477e+00
   31        7.728870e-01
   32        7.956630e-01
   33        3.071333e-01
   34        7.478243e-01
   35       -7.269358e-01
   36        1.072247e+00
   37       -1.383472e+00
   38       -9.957886e-01
   39       -1.195495e-01
   40       -2.388074e+00
   41       -9.128035e-01
   42       -8.732487e-01
   43        9.403380e-01
   44       -1.634814e+00
   45       -1.212643e-01
   46        1.811422e+00
   47        7.843948e-01
   48       -7.581188e-01
   49       -6.788168e-01
   50       -1.236832e+00
   51        1.645966e+00
   52       -1.419129e+00
   53       -1.846954e+00
   54        4.918642e-01
   55       -3.519057e-02
   56        6.160085e-01
   57        1.106373e-01
;
param outliervec:=
    1    1
    2    1
    3    1
    4    1
    5    1
    6    1
    7    1
    8    0
    9    1
   10    1
   11    1
   12    1
   13    1
   14    0
   15    1
   16    1
   17    1
   18    1
   19    1
   20    1
   21    1
   22    1
   23    1
   24    1
   25    0
   26    1
   27    1
   28    1
   29    0
   30    1
   31    0
   32    1
   33    1
   34    0
   35    1
   36    1
   37    1
   38    1
   39    1
   40    0
   41    1
   42    1
   43    1
   44    1
   45    1
   46    0
   47    1
   48    1
   49    1
   50    1
   51    1
   52    1
   53    0
   54    1
   55    1
   56    1
   57    1
; 
param greedy_time :=         3.058916e-01
;